p cnf 76 141
c 1 BerkeleyDb
c 2 BerkeleyDB
c 3 FPersistency
c 4 Persistency
c 5 FIOFeature
c 6 NIO
c 7 IO
c 8 FNIOType
c 9 featureNIO
c 10 featureChunkedNIO
c 11 featureDirectNIO
c 12 featureIO
c 13 featureSynchronizedIO
c 14 FPersistencyFeatures
c 15 featureChecksum
c 16 featureFileHandleCache
c 17 featureHandleFullDiscError
c 18 featureEnvironmentLock
c 19 Checkpointer
c 20 Cleaner
c 21 featureCustomizableCheckpointerTime
c 22 featureCustomizableCheckpointerBytes
c 23 featureCheckpointerDaemon
c 24 featureLookAheadCache
c 25 featureCleanerDaemon
c 26 FBtree
c 27 BTree
c 28 featureVerifier
c 29 featureTreeVisitor
c 30 featureINCompressor
c 31 FEvictor
c 32 Evictor
c 33 featureEvictor
c 34 featureCriticalEviction
c 35 featureEvictorDaemon
c 36 BASE
c 37 FLogging
c 38 Logging
c 39 featureLoggingBase
c 40 featureLoggingFile
c 41 featureLoggingConsole
c 42 featureLoggingDbLog
c 43 featureLoggingFinest
c 44 featureLoggingFiner
c 45 featureLoggingFine
c 46 featureLoggingInfo
c 47 featureLoggingConfig
c 48 featureLoggingSevere
c 49 FStatistics
c 50 Statistics
c 51 FStatisticsFeatures
c 52 EnvStats
c 53 featureStatisticsDatabase
c 54 featureStatisticsLock
c 55 featureStatisticsPreload
c 56 featureStatisticsSequence
c 57 featureStatisticsTransaction
c 58 featureStatisticsEnvBase
c 59 featureStatisticsEnvLog
c 60 featureStatisticsEnvINCompressor
c 61 featureStatisticsEnvFSync
c 62 featureStatisticsEnvEvictor
c 63 featureStatisticsEnvCleaner
c 64 featureStatisticsEnvCheckpointer
c 65 featureStatisticsEnvCaching
c 66 featureStatisticsBase
c 67 featureMemoryBudget
c 68 FConcurrency
c 69 featureLatch
c 70 featureFSync
c 71 featureTransaction
c 72 dummyFeatureLocking
c 73 featureCheckLeaks
c 74 FDbOperation
c 75 featureDeleteDb
c 76 featureTruncateDb
1 0
-2 1 0
-2 3 0
-3 2 0
-4 3 0
-4 5 0
-5 4 0
-5 6 7 0
-6 -7 0
-6 5 0
-7 5 0
-6 8 0
-8 6 0
-8 9 10 0
-9 -10 0
-9 8 0
-10 8 0
-11 6 0
-7 12 0
-12 7 0
-13 7 0
-14 4 0
-14 15 16 17 18 19 20 0
-15 14 0
-16 14 0
-17 14 0
-18 14 0
-19 14 0
-20 14 0
-21 19 0
-22 19 0
-23 19 0
-24 20 0
-25 20 0
-2 26 0
-26 2 0
-27 26 0
-28 27 0
-29 27 0
-30 27 0
-31 27 0
-32 31 0
-32 33 0
-33 32 0
-34 32 0
-35 32 0
-2 36 0
-36 2 0
-37 2 0
-38 37 0
-38 39 0
-39 38 0
-40 38 0
-41 38 0
-42 38 0
-43 38 0
-44 38 0
-45 38 0
-46 38 0
-47 38 0
-48 38 0
-49 2 0
-50 49 0
-50 51 0
-51 50 0
-51 52 53 54 55 56 57 0
-52 51 0
-53 51 0
-54 51 0
-55 51 0
-56 51 0
-57 51 0
-52 58 0
-58 52 0
-59 52 0
-60 52 0
-61 52 0
-62 52 0
-63 52 0
-64 52 0
-65 52 0
-50 66 0
-66 50 0
-67 2 0
-68 2 0
-68 69 70 71 72 73 0
-69 68 0
-70 68 0
-71 68 0
-72 68 0
-73 68 0
-74 2 0
-74 75 76 0
-75 74 0
-76 74 0
-33 67 0
-35 67 0
-24 67 0
-65 67 0
-73 54 0
-34 30 0
-22 21 0
-75 72 0
-75 33 0
-75 30 0
-75 67 0
-69 72 0
-69 73 0
-69 75 0
-69 33 0
-69 16 0
-69 70 0
-69 30 0
-69 67 0
-69 54 0
-69 29 0
-69 76 0
-69 28 0
-48 18 0
-45 72 0
-45 33 0
-45 30 0
-46 15 0
-46 67 0
-39 71 0
-43 71 0
-67 33 0
-67 69 0
-54 72 0
-57 72 0
-62 33 0
-61 70 0
-60 30 0
-57 71 0
-53 29 0
-71 72 0
-71 75 0
-71 76 0
-76 75 0
-28 30 0
-28 29 0